NAME : 10_3_3_1_(12).dat
COMMENT : Henke, Speranza, Wäscher, 2015
TYPE : MCVRP
DIMENSION : 11
EDGE_WEIGHT_TYPE : DISTANCE_MATRIX
CAPACITY : 1000
VEHICLES : 2
PRODUCT TYPES : 3
COMPARTMENTS : 3
NODE_COORD_SECTION
1 50 50
2 51.99 37.19
3 51.53 84.31
4 53.17 59.05
5 21.17 58.92
6 91.69 13.04
7 2.04 97.52
8 39.59 77.62
9 96.05 9.76
10 64.21 93.52
11 48.9 57.26
DEMAND_SECTION
1 0 0 0
2 144 0 0
3 252 0 0
4 0 127 0
5 116 0 0
6 26 0 0
7 33 0 0
8 70 0 0
9 0 0 256
10 0 220 0
11 0 37 0
DEPOT_SECTION
1
EOF